SCIP version 8.0.0 [precision: 8 byte] [memory: block] [mode: optimized] [LP solver: SoPlex 6.0.0] [GitHash: a740f0891e]
Copyright (C) 2002-2021 Konrad-Zuse-Zentrum fuer Informationstechnik Berlin (ZIB)

read problem </home/danilo/cbc-test-set/T1_300_5000_0.mps.gz> ...

original problem has 300 variables (300 bin, 0 int, 0 impl, 0 cont) and 300 constraints
solve problem ...

presolving:
   Deactivated symmetry handling methods, since SCIP was built without symmetry detector (SYM=none).
presolving (0 rounds: 0 fast, 0 medium, 0 exhaustive):
 0 deleted vars, 0 deleted constraints, 0 added constraints, 0 tightened bounds, 0 added holes, 0 changed sides, 0 changed coefficients
 0 implications, 0 cliques
presolved problem has 300 variables (300 bin, 0 int, 0 impl, 0 cont) and 300 constraints
    300 constraints of type <linear>
transformed objective value is always integral (scale: 1)
Presolving Time: 0.00

 time | node  | left  |LP iter|LP it/n|mem/heur|mdpt |vars |cons |rows |cuts |sepa|confs|strbr|  dualbound   | primalbound  |  gap   | compl. 
  0.1s|     1 |     0 |  1483 |     - |  5251k |   0 | 300 | 300 | 300 |   0 |  0 |   0 |   0 | 2.648788e+02 |      --      |    Inf | unknown
* 0.1s|     1 |     0 |  1483 |     - |strongbr|   0 | 300 | 300 | 300 |   0 |  1 |   0 |   0 | 2.648788e+02 | 3.180000e+03 |1100.55%| unknown
* 0.1s|     1 |     0 |  1483 |     - |strongbr|   0 | 300 | 300 | 300 |   0 |  1 |   0 |   0 | 2.648788e+02 | 2.941000e+03 |1010.32%| unknown
* 0.2s|     1 |     0 |  1483 |     - |strongbr|   0 | 300 | 300 | 300 |   0 |  1 |   0 |   1 | 2.648788e+02 | 2.872000e+03 | 984.27%| unknown
* 0.2s|     1 |     0 |  1483 |     - |strongbr|   0 | 300 | 300 | 300 |   0 |  1 |   0 |   2 | 2.648788e+02 | 2.854000e+03 | 977.47%| unknown
* 0.8s|     1 |     0 |  1483 |     - |strongbr|   0 | 300 | 300 | 300 |   0 |  1 |   0 |  16 | 2.648788e+02 | 2.840000e+03 | 972.19%| unknown
* 0.9s|     1 |     0 |  1483 |     - |strongbr|   0 | 300 | 300 | 300 |   0 |  1 |   0 |  18 | 2.648788e+02 | 2.667000e+03 | 906.88%| unknown
  0.9s|     1 |     2 |  1483 |     - |  5614k |   0 | 300 | 300 | 300 |   0 |  1 |   0 |  19 | 2.702209e+02 | 2.667000e+03 | 886.97%| unknown

SCIP Status        : solving was interrupted [node limit reached]
Solving Time (sec) : 0.89
Solving Nodes      : 1
Primal Bound       : +2.66700000000000e+03 (33 solutions)
Dual Bound         : +2.70220851443071e+02
Gap                : 886.97 %
primal solution:
objective value:                                 2667
x(298)                                              1 	(obj:39)
x(4)                                                1 	(obj:26)
x(9)                                                1 	(obj:28)
x(10)                                               1 	(obj:28)
x(13)                                               1 	(obj:34)
x(15)                                               1 	(obj:20)
x(23)                                               1 	(obj:20)
x(28)                                               1 	(obj:36)
x(29)                                               1 	(obj:22)
x(30)                                               1 	(obj:25)
x(31)                                               1 	(obj:33)
x(32)                                               1 	(obj:28)
x(34)                                               1 	(obj:39)
x(36)                                               1 	(obj:20)
x(49)                                               1 	(obj:26)
x(52)                                               1 	(obj:38)
x(54)                                               1 	(obj:25)
x(66)                                               1 	(obj:25)
x(71)                                               1 	(obj:34)
x(75)                                               1 	(obj:23)
x(77)                                               1 	(obj:41)
x(78)                                               1 	(obj:23)
x(83)                                               1 	(obj:29)
x(84)                                               1 	(obj:40)
x(91)                                               1 	(obj:28)
x(92)                                               1 	(obj:35)
x(95)                                               1 	(obj:28)
x(98)                                               1 	(obj:25)
x(104)                                              1 	(obj:26)
x(106)                                              1 	(obj:21)
x(109)                                              1 	(obj:22)
x(110)                                              1 	(obj:24)
x(115)                                              1 	(obj:24)
x(117)                                              1 	(obj:37)
x(118)                                              1 	(obj:26)
x(120)                                              1 	(obj:20)
x(121)                                              1 	(obj:30)
x(123)                                              1 	(obj:21)
x(124)                                              1 	(obj:28)
x(131)                                              1 	(obj:35)
x(133)                                              1 	(obj:21)
x(135)                                              1 	(obj:34)
x(138)                                              1 	(obj:23)
x(142)                                              1 	(obj:23)
x(149)                                              1 	(obj:25)
x(150)                                              1 	(obj:38)
x(154)                                              1 	(obj:21)
x(155)                                              1 	(obj:27)
x(161)                                              1 	(obj:22)
x(163)                                              1 	(obj:24)
x(164)                                              1 	(obj:44)
x(167)                                              1 	(obj:36)
x(170)                                              1 	(obj:29)
x(171)                                              1 	(obj:21)
x(172)                                              1 	(obj:33)
x(174)                                              1 	(obj:26)
x(175)                                              1 	(obj:22)
x(176)                                              1 	(obj:26)
x(178)                                              1 	(obj:33)
x(179)                                              1 	(obj:33)
x(180)                                              1 	(obj:20)
x(181)                                              1 	(obj:31)
x(183)                                              1 	(obj:26)
x(185)                                              1 	(obj:20)
x(189)                                              1 	(obj:20)
x(191)                                              1 	(obj:28)
x(196)                                              1 	(obj:32)
x(201)                                              1 	(obj:23)
x(203)                                              1 	(obj:25)
x(210)                                              1 	(obj:21)
x(216)                                              1 	(obj:27)
x(217)                                              1 	(obj:29)
x(218)                                              1 	(obj:27)
x(220)                                              1 	(obj:23)
x(222)                                              1 	(obj:36)
x(225)                                              1 	(obj:20)
x(226)                                              1 	(obj:22)
x(231)                                              1 	(obj:27)
x(232)                                              1 	(obj:27)
x(234)                                              1 	(obj:25)
x(238)                                              1 	(obj:29)
x(240)                                              1 	(obj:27)
x(243)                                              1 	(obj:20)
x(246)                                              1 	(obj:24)
x(248)                                              1 	(obj:22)
x(250)                                              1 	(obj:21)
x(251)                                              1 	(obj:23)
x(253)                                              1 	(obj:23)
x(263)                                              1 	(obj:33)
x(269)                                              1 	(obj:38)
x(276)                                              1 	(obj:20)
x(277)                                              1 	(obj:36)
x(281)                                              1 	(obj:29)
x(286)                                              1 	(obj:35)
x(290)                                              1 	(obj:29)
x(295)                                              1 	(obj:30)
x(299)                                              1 	(obj:26)
Statistics:
SCIP Status        : solving was interrupted [node limit reached]
Total Time         :       0.90
  solving          :       0.89
  presolving       :       0.00 (included in solving)
  reading          :       0.01
  copying          :       0.00 (0 times copied the problem)
Original Problem   :
  Problem name     : _MPS_
  Variables        : 300 (300 binary, 0 integer, 0 implicit integer, 0 continuous)
  Constraints      : 300 initial, 300 maximal
  Objective        : minimize, 300 non-zeros (abs.min = 20, abs.max = 49)
Presolved Problem  :
  Problem name     : t__MPS_
  Variables        : 300 (300 binary, 0 integer, 0 implicit integer, 0 continuous)
  Constraints      : 300 initial, 300 maximal
  Objective        : minimize, 300 non-zeros (abs.min = 20, abs.max = 49)
  Nonzeros         : 10300 constraint, 0 clique table
Presolvers         :   ExecTime  SetupTime  Calls  FixedVars   AggrVars   ChgTypes  ChgBounds   AddHoles    DelCons    AddCons   ChgSides   ChgCoefs
  boundshift       :       0.00       0.00      0          0          0          0          0          0          0          0          0          0
  convertinttobin  :       0.00       0.00      0          0          0          0          0          0          0          0          0          0
  domcol           :       0.00       0.00      0          0          0          0          0          0          0          0          0          0
  dualagg          :       0.00       0.00      0          0          0          0          0          0          0          0          0          0
  dualcomp         :       0.00       0.00      0          0          0          0          0          0          0          0          0          0
  dualinfer        :       0.00       0.00      0          0          0          0          0          0          0          0          0          0
  dualsparsify     :       0.00       0.00      0          0          0          0          0          0          0          0          0          0
  gateextraction   :       0.00       0.00      0          0          0          0          0          0          0          0          0          0
  implics          :       0.00       0.00      0          0          0          0          0          0          0          0          0          0
  inttobinary      :       0.00       0.00      0          0          0          0          0          0          0          0          0          0
  qpkktref         :       0.00       0.00      0          0          0          0          0          0          0          0          0          0
  redvub           :       0.00       0.00      0          0          0          0          0          0          0          0          0          0
  sparsify         :       0.00       0.00      0          0          0          0          0          0          0          0          0          0
  stuffing         :       0.00       0.00      0          0          0          0          0          0          0          0          0          0
  trivial          :       0.00       0.00      0          0          0          0          0          0          0          0          0          0
  tworowbnd        :       0.00       0.00      0          0          0          0          0          0          0          0          0          0
  dualfix          :       0.00       0.00      0          0          0          0          0          0          0          0          0          0
  genvbounds       :       0.00       0.00      0          0          0          0          0          0          0          0          0          0
  probing          :       0.00       0.00      0          0          0          0          0          0          0          0          0          0
  pseudoobj        :       0.00       0.00      0          0          0          0          0          0          0          0          0          0
  symmetry         :       0.00       0.00      0          0          0          0          0          0          0          0          0          0
  vbounds          :       0.00       0.00      0          0          0          0          0          0          0          0          0          0
  linear           :       0.00       0.00      0          0          0          0          0          0          0          0          0          0
  benders          :       0.00       0.00      0          0          0          0          0          0          0          0          0          0
  components       :       0.00       0.00      0          0          0          0          0          0          0          0          0          0
  root node        :          -          -      -          0          -          -          0          -          -          -          -          -
Constraints        :     Number  MaxNumber  #Separate #Propagate    #EnfoLP    #EnfoRelax  #EnfoPS    #Check   #ResProp    Cutoffs    DomReds       Cuts    Applied      Conss   Children
  benderslp        :          0          0          0          0          1          0          0         35          0          0          0          0          0          0          0
  integral         :          0          0          0          0          1          0          0         35          0          0          0          0          0          0          2
  linear           :        300        300          1         39          0          0          0         33          0          0          0          0          0          0          0
  benders          :          0          0          0          0          0          0          0         34          0          0          0          0          0          0          0
  countsols        :          0          0          0          0          0          0          0         34          0          0          0          0          0          0          0
  components       :          0          0          0          0          0          0          0          0          0          0          0          0          0          0          0
Constraint Timings :  TotalTime  SetupTime   Separate  Propagate     EnfoLP     EnfoPS     EnfoRelax   Check    ResProp    SB-Prop
  benderslp        :       0.00       0.00       0.00       0.00       0.00       0.00       0.00       0.00       0.00       0.00
  integral         :       0.81       0.00       0.00       0.00       0.81       0.00       0.00       0.00       0.00       0.00
  linear           :       0.01       0.00       0.00       0.00       0.00       0.00       0.00       0.00       0.00       0.00
  benders          :       0.00       0.00       0.00       0.00       0.00       0.00       0.00       0.00       0.00       0.00
  countsols        :       0.00       0.00       0.00       0.00       0.00       0.00       0.00       0.00       0.00       0.00
  components       :       0.00       0.00       0.00       0.00       0.00       0.00       0.00       0.00       0.00       0.00
Propagators        : #Propagate   #ResProp    Cutoffs    DomReds
  dualfix          :          1          0          0          0
  genvbounds       :          0          0          0          0
  nlobbt           :          0          0          0          0
  obbt             :          0          0          0          0
  probing          :          0          0          0          0
  pseudoobj        :          3          0          0          0
  redcost          :          2          0          0          0
  rootredcost      :          0          0          0          0
  symmetry         :          0          0          0          0
  vbounds          :          0          0          0          0
Propagator Timings :  TotalTime  SetupTime   Presolve  Propagate    ResProp    SB-Prop
  dualfix          :       0.00       0.00       0.00       0.00       0.00       0.00
  genvbounds       :       0.00       0.00       0.00       0.00       0.00       0.00
  nlobbt           :       0.00       0.00       0.00       0.00       0.00       0.00
  obbt             :       0.00       0.00       0.00       0.00       0.00       0.00
  probing          :       0.00       0.00       0.00       0.00       0.00       0.00
  pseudoobj        :       0.00       0.00       0.00       0.00       0.00       0.00
  redcost          :       0.00       0.00       0.00       0.00       0.00       0.00
  rootredcost      :       0.00       0.00       0.00       0.00       0.00       0.00
  symmetry         :       0.00       0.00       0.00       0.00       0.00       0.00
  vbounds          :       0.00       0.00       0.00       0.00       0.00       0.00
Conflict Analysis  :       Time      Calls    Success    DomReds  Conflicts   Literals    Reconvs ReconvLits   Dualrays   Nonzeros   LP Iters   (pool size: [--,--])
  propagation      :       0.00          0          0          -          0        0.0          0        0.0          -          -          -
  infeasible LP    :       0.00          0          0          -          0        0.0          0        0.0          0        0.0          0
  bound exceed. LP :       0.00          0          0          -          0        0.0          0        0.0          0        0.0          0
  strong branching :       0.00          0          0          -          0        0.0          0        0.0          -          -          0
  pseudo solution  :       0.00          0          0          -          0        0.0          0        0.0          -          -          -
  applied globally :       0.00          -          -          0          0        0.0          -          -          0          -          -
  applied locally  :          -          -          -          0          0        0.0          -          -          0          -          -
Separators         :   ExecTime  SetupTime      Calls    Cutoffs    DomReds       Cuts    Applied      Conss
  cut pool         :       0.00                     0          -          -          0          -          -    (maximal pool size: 0)
  aggregation      :       0.00       0.00          0          0          0          0          0          0
  > cmir           :          -          -          -          -          -          -          0          -
  > flowcover      :          -          -          -          -          -          -          0          -
  > knapsackcover  :          -          -          -          -          -          -          0          -
  cgmip            :       0.00       0.00          0          0          0          0          0          0
  clique           :       0.00       0.00          0          0          0          0          0          0
  closecuts        :       0.00       0.00          0          0          0          0          0          0
  convexproj       :       0.00       0.00          0          0          0          0          0          0
  disjunctive      :       0.00       0.00          0          0          0          0          0          0
  eccuts           :       0.00       0.00          0          0          0          0          0          0
  gauge            :       0.00       0.00          0          0          0          0          0          0
  gmi              :       0.00       0.00          0          0          0          0          0          0
  gomory           :       0.00       0.00          0          0          0          0          0          0
  > gomorymi       :          -          -          -          -          -          -          0          -
  > strongcg       :          -          -          -          -          -          -          0          -
  impliedbounds    :       0.00       0.00          0          0          0          0          0          0
  interminor       :       0.00       0.00          0          0          0          0          0          0
  intobj           :       0.00       0.00          0          0          0          0          0          0
  mcf              :       0.00       0.00          0          0          0          0          0          0
  minor            :       0.00       0.00          0          0          0          0          0          0
  mixing           :       0.00       0.00          0          0          0          0          0          0
  oddcycle         :       0.00       0.00          0          0          0          0          0          0
  rapidlearning    :       0.00       0.00          0          0          0          0          0          0
  rlt              :       0.00       0.00          0          0          0          0          0          0
  zerohalf         :       0.00       0.00          0          0          0          0          0          0
Cutselectors       :   ExecTime  SetupTime
  hybrid           :       0.00       0.00
Pricers            :   ExecTime  SetupTime      Calls       Vars
  problem variables:       0.00          -          0          0
Branching Rules    :   ExecTime  SetupTime   BranchLP  BranchExt   BranchPS    Cutoffs    DomReds       Cuts      Conss   Children
  allfullstrong    :       0.00       0.00          0          0          0          0          0          0          0          0
  cloud            :       0.00       0.00          0          0          0          0          0          0          0          0
  distribution     :       0.00       0.00          0          0          0          0          0          0          0          0
  fullstrong       :       0.00       0.00          0          0          0          0          0          0          0          0
  inference        :       0.00       0.00          0          0          0          0          0          0          0          0
  leastinf         :       0.00       0.00          0          0          0          0          0          0          0          0
  lookahead        :       0.00       0.00          0          0          0          0          0          0          0          0
  mostinf          :       0.00       0.00          0          0          0          0          0          0          0          0
  multaggr         :       0.00       0.00          0          0          0          0          0          0          0          0
  nodereopt        :       0.00       0.00          0          0          0          0          0          0          0          0
  pscost           :       0.00       0.00          0          0          0          0          0          0          0          0
  random           :       0.00       0.00          0          0          0          0          0          0          0          0
  relpscost        :       0.81       0.00          1          0          0          0          0          0          0          2
  vanillafullstrong:       0.00       0.00          0          0          0          0          0          0          0          0
Primal Heuristics  :   ExecTime  SetupTime      Calls      Found       Best
  LP solutions     :       0.00          -          -          0          0
  relax solutions  :       0.00          -          -          0          0
  pseudo solutions :       0.00          -          -          0          0
  strong branching :       0.00          -          -         33          6
  actconsdiving    :       0.00       0.00          0          0          0
  adaptivediving   :       0.00       0.00          0          0          0
  alns             :       0.00       0.00          0          0          0
  bound            :       0.00       0.00          0          0          0
  clique           :       0.00       0.00          0          0          0
  coefdiving       :       0.00       0.00          0          0          0
  completesol      :       0.00       0.00          0          0          0
  conflictdiving   :       0.00       0.00          0          0          0
  crossover        :       0.00       0.00          0          0          0
  dins             :       0.00       0.00          0          0          0
  distributiondivin:       0.00       0.00          0          0          0
  dps              :       0.00       0.00          0          0          0
  dualval          :       0.00       0.00          0          0          0
  farkasdiving     :       0.00       0.00          0          0          0
  feaspump         :       0.00       0.00          0          0          0
  fixandinfer      :       0.00       0.00          0          0          0
  fracdiving       :       0.00       0.00          0          0          0
  gins             :       0.00       0.00          0          0          0
  guideddiving     :       0.00       0.00          0          0          0
  indicator        :       0.00       0.00          0          0          0
  intdiving        :       0.00       0.00          0          0          0
  intshifting      :       0.00       0.00          0          0          0
  linesearchdiving :       0.00       0.00          0          0          0
  localbranching   :       0.00       0.00          0          0          0
  locks            :       0.00       0.00          0          0          0
  lpface           :       0.00       0.00          0          0          0
  mpec             :       0.00       0.00          0          0          0
  multistart       :       0.00       0.00          0          0          0
  mutation         :       0.00       0.00          0          0          0
  nlpdiving        :       0.00       0.00          0          0          0
  objpscostdiving  :       0.00       0.00          0          0          0
  octane           :       0.00       0.00          0          0          0
  ofins            :       0.00       0.00          0          0          0
  oneopt           :       0.00       0.00          0          0          0
  padm             :       0.00       0.00          0          0          0
  proximity        :       0.00       0.00          0          0          0
  pscostdiving     :       0.00       0.00          0          0          0
  randrounding     :       0.00       0.00          0          0          0
  rens             :       0.00       0.00          0          0          0
  reoptsols        :       0.00       0.00          0          0          0
  repair           :       0.00       0.00          0          0          0
  rins             :       0.00       0.00          0          0          0
  rootsoldiving    :       0.00       0.00          0          0          0
  rounding         :       0.00       0.00          0          0          0
  shiftandpropagate:       0.00       0.00          0          0          0
  shifting         :       0.00       0.00          0          0          0
  simplerounding   :       0.00       0.00          0          0          0
  subnlp           :       0.00       0.00          0          0          0
  trivial          :       0.00       0.00          0          0          0
  trivialnegation  :       0.00       0.00          0          0          0
  trustregion      :       0.00       0.00          0          0          0
  trysol           :       0.00       0.00          0          0          0
  twoopt           :       0.00       0.00          0          0          0
  undercover       :       0.00       0.00          0          0          0
  vbounds          :       0.00       0.00          0          0          0
  veclendiving     :       0.00       0.00          0          0          0
  zeroobj          :       0.00       0.00          0          0          0
  zirounding       :       0.00       0.00          0          0          0
  other solutions  :          -          -          -          0          -
Diving (single)    :      Calls      Nodes   LP Iters Backtracks  Conflicts   MinDepth   MaxDepth   AvgDepth  RoundSols  NLeafSols  MinSolDpt  MaxSolDpt  AvgSolDpt
  actconsdiving    :          0          -          -          -          -          -          -          -          -          -          -          -          -
  coefdiving       :          0          -          -          -          -          -          -          -          -          -          -          -          -
  conflictdiving   :          0          -          -          -          -          -          -          -          -          -          -          -          -
  distributiondivin:          0          -          -          -          -          -          -          -          -          -          -          -          -
  farkasdiving     :          0          -          -          -          -          -          -          -          -          -          -          -          -
  fracdiving       :          0          -          -          -          -          -          -          -          -          -          -          -          -
  guideddiving     :          0          -          -          -          -          -          -          -          -          -          -          -          -
  linesearchdiving :          0          -          -          -          -          -          -          -          -          -          -          -          -
  pscostdiving     :          0          -          -          -          -          -          -          -          -          -          -          -          -
  veclendiving     :          0          -          -          -          -          -          -          -          -          -          -          -          -
Diving (adaptive)  :      Calls      Nodes   LP Iters Backtracks  Conflicts   MinDepth   MaxDepth   AvgDepth  RoundSols  NLeafSols  MinSolDpt  MaxSolDpt  AvgSolDpt
  actconsdiving    :          0          -          -          -          -          -          -          -          -          -          -          -          -
  coefdiving       :          0          -          -          -          -          -          -          -          -          -          -          -          -
  conflictdiving   :          0          -          -          -          -          -          -          -          -          -          -          -          -
  distributiondivin:          0          -          -          -          -          -          -          -          -          -          -          -          -
  farkasdiving     :          0          -          -          -          -          -          -          -          -          -          -          -          -
  fracdiving       :          0          -          -          -          -          -          -          -          -          -          -          -          -
  guideddiving     :          0          -          -          -          -          -          -          -          -          -          -          -          -
  linesearchdiving :          0          -          -          -          -          -          -          -          -          -          -          -          -
  pscostdiving     :          0          -          -          -          -          -          -          -          -          -          -          -          -
  veclendiving     :          0          -          -          -          -          -          -          -          -          -          -          -          -
Neighborhoods      :      Calls  SetupTime  SolveTime SolveNodes       Sols       Best       Exp3  EpsGreedy        UCB TgtFixRate  Opt  Inf Node Stal  Sol  Usr Othr Actv
  rens             :          0       0.00       0.00          0          0          0    0.00000   -1.00000    1.00000      0.900    0    0    0    0    0    0    0    1
  rins             :          0       0.00       0.00          0          0          0    0.00000   -1.00000    1.00000      0.900    0    0    0    0    0    0    0    1
  mutation         :          0       0.00       0.00          0          0          0    0.00000   -1.00000    1.00000      0.900    0    0    0    0    0    0    0    1
  localbranching   :          0       0.00       0.00          0          0          0    0.00000   -1.00000    1.00000      0.900    0    0    0    0    0    0    0    1
  crossover        :          0       0.00       0.00          0          0          0    0.00000   -1.00000    1.00000      0.900    0    0    0    0    0    0    0    1
  proximity        :          0       0.00       0.00          0          0          0    0.00000   -1.00000    1.00000      0.900    0    0    0    0    0    0    0    1
  zeroobjective    :          0       0.00       0.00          0          0          0    0.00000   -1.00000    1.00000      0.900    0    0    0    0    0    0    0    1
  dins             :          0       0.00       0.00          0          0          0    0.00000   -1.00000    1.00000      0.900    0    0    0    0    0    0    0    1
  trustregion      :          0       0.00       0.00          0          0          0    0.00000   -1.00000    1.00000      0.900    0    0    0    0    0    0    0    0
LP                 :       Time      Calls Iterations  Iter/call   Iter/sec  Time-0-It Calls-0-It    ItLimit
  primal LP        :       0.00          0          0       0.00          -       0.00          0
  dual LP          :       0.07          1       1483    1483.00   21603.59       0.00          0
  lex dual LP      :       0.00          0          0       0.00          -
  barrier LP       :       0.00          0          0       0.00          -       0.00          0
  resolve instable :       0.00          0          0       0.00          -
  diving/probing LP:       0.00          0          0       0.00          -
  strong branching :       0.80         19      12137     638.79   15140.02          -          -          5
    (at root node) :          -         19      12137     638.79          -
  conflict analysis:       0.00          0          0       0.00          -
B&B Tree           :
  number of runs   :          1
  nodes            :          1 (1 internal, 0 leaves)
  feasible leaves  :          0
  infeas. leaves   :          0
  objective leaves :          0
  nodes (total)    :          1 (1 internal, 0 leaves)
  nodes left       :          2
  max depth        :          0
  max depth (total):          0
  backtracks       :          0 (0.0%)
  early backtracks :          0 (0.0%)
  nodes exc. ref.  :          0 (0.0%)
  delayed cutoffs  :          0
  repropagations   :          0 (0 domain reductions, 0 cutoffs)
  avg switch length:       1.00
  switching time   :       0.00
Estim. Tree Size   :         -1
Estimation Tree    : 3 nodes (1 visited, 1 internal, 0 leaves, 2 open), weight: 0.0000 completed 0.0000
Estimations        :      estim      value      trend resolution     smooth
  wbe              :         -1          -          -          -          -
  tree-profile     :         -1          -          -          -          -
  gap              :         -1    0.10132                     1           
  tree-weight      :         -1    0.00000                     1           
  leaf-frequency   :         -1   -0.50000                     1           
  ssg              :         -1    1.00000                     1           
  open-nodes       :         -1    2.00000                     1           
Root Node          :
  First LP value   : +2.64878814682926e+02
  First LP Iters   :       1483 (21053.68 Iter/sec)
  First LP Time    :       0.07
  Final Dual Bound : +2.70220851443071e+02
  Final Root Iters :       1483
  Root LP Estimate : +3.12597032259523e+02
Solution           :
  Solutions found  :         33 (6 improvements)
  First Solution   : +3.18000000000000e+03   (in run 1, after 1 nodes, 0.10 seconds, depth 2, found by <relaxation>)
  Gap First Sol.   :    1100.55 %
  Gap Last Sol.    :     906.88 %
  Primal Bound     : +2.66700000000000e+03   (in run 1, after 1 nodes, 0.89 seconds, depth 2, found by <relaxation>)
  Dual Bound       : +2.70220851443071e+02
  Gap              :     886.97 %
Integrals          :      Total       Avg%
  primal-dual      :      81.71      91.83
  primal-ref       :          -          - (not evaluated)
  dual-ref         :          -          - (not evaluated)
